LAMMPS executable: /apps/envs/lammps-mace-2026.08/bin/lmp
=== GPU/KOKKOS CG adsorption-system relaxation ===
LAMMPS (4 Jul 2026 - Development - d3b14f6c4)
/apps/envs/lammps-mace-current/lib/python3.12/site-packages/e3nn/o3/_wigner.py:10: UserWarning: Environment variable TORCH_FORCE_NO_WEIGHTS_ONLY_LOAD detected, since the`weights_only` argument was not explicitly passed to `torch.load`, forcing weights_only=False.
  _Jd, _W3j_flat, _W3j_indices = torch.load(os.path.join(os.path.dirname(__file__), 'constants.pt'))
KOKKOS mode with Kokkos version 5.1.99 is enabled
  using double precision
  using view layout = legacy
  will use up to 1 GPU(s) per node
  using 1 OpenMP thread(s) per MPI task
  using 1 OpenMP thread(s) per MPI task
Reading data file ...
  orthogonal box = (0 0 0) to (13.130811 21.269124 74.53377)
  1 by 1 by 1 MPI processor grid
  reading atoms ...
  668 atoms
  read_data CPU = 0.004 seconds
64 atoms in group fixed
604 atoms in group mobile
28 atoms in group molecule

CITE-CITE-CITE-CITE-CITE-CITE-CITE-CITE-CITE-CITE-CITE-CITE-CITE

Your simulation uses code contributions which should be cited:
- KOKKOS package: https://doi.org/10.1145/3731599.3767498
The log file lists these citations in BibTeX format.

CITE-CITE-CITE-CITE-CITE-CITE-CITE-CITE-CITE-CITE-CITE-CITE-CITE

Neighbor list info ...
  update: every = 1 steps, delay = 0 steps, check = yes
  max neighbors/atom: 2000, page size: 100000
  master list distance cutoff = 32
  ghost atom cutoff = 32
  binsize = 32, bins = 1 1 3
  2 neighbor lists, perpetual/occasional/extra = 2 0 0
  (1) pair mliap, perpetual
      attributes: full, newton on, kokkos_device
      pair build: full/bin/kk/device
      stencil: full/bin/3d
      bin: kk/device
  (2) pair dispersion/d3, perpetual
      attributes: half, newton on, cut 32
      pair build: half/bin/atomonly/newton
      stencil: half/bin/3d
      bin: standard
Setting up cg/kk style minimization ...
  Unit style    : metal
  Current step  : 0
WARNING: Fix MINIMIZE/kk not compatible with sending data in Kokkos communication (src/lammps-mace-v12/lammps/src/KOKKOS/comm_kokkos.cpp:934)
WARNING: Fix with atom-based arrays not compatible with sending data in Kokkos communication, switching to legacy exchange/border communication (src/lammps-mace-v12/lammps/src/KOKKOS/comm_kokkos.cpp:941)
WARNING: Fix MINIMIZE/kk not (yet) compatible with Kokkos sorting on device (src/lammps-mace-v12/lammps/src/KOKKOS/atom_kokkos.cpp:303)
WARNING: Fix with atom-based arrays not (yet) compatible with Kokkos sorting on device, switching to legacy host sorting (src/lammps-mace-v12/lammps/src/KOKKOS/atom_kokkos.cpp:309)
ERROR on proc 0: Neighbor list overflow, boost neigh_modify one
For more information see https://docs.lammps.org/err0036 (src/lammps-mace-v12/lammps/src/npair_bin.cpp:248)
--------------------------------------------------------------------------
MPI_ABORT was invoked on rank 0 in communicator MPI_COMM_WORLD
with errorcode 1.

NOTE: invoking MPI_ABORT causes Open MPI to kill all MPI processes.
You may or may not see output from other processes, depending on
exactly when Open MPI kills them.
--------------------------------------------------------------------------
